\ This file has been generated by DOcplex
\ ENCODING=ISO-8859-1
\Problem name: random_problem.lp

Minimize
 obj: - 7 x0 + 3 x1 + 5 x2 - 6 x3 + 3 x4 + 2 x5 - 9 x6 + 3 x7 - 9 x8 + 9 x9
      - 7 x10 - 9 x11 - x12 + 2 x13 - 7 x14 + x15 - 9 x16 + 9 x17 + 2 x18
      - 6 x20 - 10 x21 + 2 x22 - 3 x23 + 10 x24 - 5 x25 - 5 x26 - 7 x27 + x30
      + 4 x31 - 8 x32 + 2 x33 - 9 x34 + 4 x35 - 2 x36 - 2 x37 + x38 - 5 x39 + [
      - 8 x0*x1 - 14 x0*x3 + 10 x0*x4 - 20 x0*x13 + 14 x0*x14 + 18 x0*x19
      + 6 x0*x25 + 20 x0*x30 + 14 x0*x35 - 2 x0*x37 + 20 x1*x5 + 12 x1*x9
      + 10 x1*x15 + 14 x1*x16 - 14 x1*x21 - 10 x1*x25 - 20 x1*x33 - 20 x1*x36
      - 20 x1*x37 + 18 x2*x3 + 2 x2*x6 + 18 x2*x9 + 14 x2*x11 + 8 x2*x17
      + 20 x2*x23 + 16 x2*x26 + 8 x2*x30 + 16 x2*x31 - 2 x2*x34 - 14 x3*x16
      + 8 x3*x21 + 18 x3*x22 + 6 x3*x27 + 14 x3*x29 - 20 x3*x32 + 16 x3*x36
      - 12 x3*x38 + 16 x4*x10 - 4 x4*x11 - 16 x4*x13 - 4 x4*x16 - 4 x4*x25
      + 10 x4*x32 - 8 x4*x33 - 12 x4*x34 + 16 x4*x37 - 6 x5*x10 - 14 x5*x14
      + 12 x5*x16 + 18 x5*x20 - 14 x5*x22 + 12 x5*x28 - 6 x5*x29 - 2 x5*x37
      + 2 x5*x39 + 6 x6*x8 + 2 x6*x10 + 4 x6*x18 - 10 x6*x24 + 16 x6*x27
      + 2 x6*x28 - 20 x6*x33 - 14 x6*x35 + 4 x6*x39 - 10 x7*x12 - 20 x7*x14
      - 6 x7*x16 - 18 x7*x18 - 2 x7*x23 - 18 x7*x24 + 12 x7*x25 + 18 x7*x28
      + 4 x7*x33 - 4 x7*x39 - 4 x8*x14 - 14 x8*x16 + 12 x8*x17 - 16 x8*x25
      + 16 x8*x31 - 14 x8*x32 + 10 x8*x33 + 18 x8*x36 + 2 x8*x38 + 20 x9*x18
      - 4 x9*x19 + 14 x9*x23 + 16 x9*x26 - 20 x9*x27 - 12 x9*x35 + 14 x9*x38
      - 18 x9*x39 - 4 x10*x12 + 14 x10*x17 - 20 x10*x20 - 4 x10*x22 + 12 x10*x31
      + 12 x10*x32 + 20 x10*x35 + 2 x11*x13 + 18 x11*x14 - 16 x11*x15
      + 18 x11*x16 - 20 x11*x19 + 18 x11*x22 + 16 x11*x24 + 18 x11*x32
      + 4 x12*x15 - 12 x12*x20 + 8 x12*x22 - 12 x12*x26 + 12 x12*x28
      - 16 x12*x33 - 14 x12*x34 - 14 x12*x35 + 18 x13*x22 - 12 x13*x23
      - 12 x13*x26 - 14 x13*x27 + 2 x13*x28 - 18 x13*x30 - 6 x13*x38 + 6 x14*x18
      - 4 x14*x22 + 12 x14*x24 - 18 x14*x28 - 4 x14*x36 + 12 x15*x25
      - 16 x15*x29 + 10 x15*x30 - 8 x15*x33 - 6 x15*x34 - 20 x15*x36 - 2 x15*x38
      - 8 x16*x19 - 6 x16*x21 + 12 x16*x35 - 8 x17*x19 + 18 x17*x20 + 14 x17*x25
      + 12 x17*x27 + 6 x17*x28 - 6 x17*x36 + 4 x17*x39 + 6 x18*x24 - 18 x18*x25
      - 4 x18*x28 + 14 x18*x34 + 6 x18*x35 - 10 x18*x38 + 18 x19*x20 + 4 x19*x27
      - 20 x19*x28 + 16 x19*x29 - 6 x19*x32 + 4 x20*x21 - 10 x20*x22 - 6 x20*x23
      + 10 x20*x35 + 2 x20*x38 - 10 x21*x23 + 8 x21*x24 - 14 x21*x26
      + 20 x21*x27 - 6 x21*x31 + 20 x21*x37 - 6 x22*x23 + 8 x22*x25 + 10 x23*x24
      - 10 x23*x31 - 18 x23*x37 + 18 x24*x31 - 12 x24*x32 + 14 x24*x37
      - 16 x25*x32 + 8 x26*x29 + 14 x26*x30 + 10 x26*x35 + 8 x26*x38
      + 12 x26*x39 - 6 x27*x33 + 12 x27*x34 + 4 x27*x38 - 8 x28*x39 - 4 x29*x30
      - 18 x29*x32 - 20 x29*x33 + 18 x29*x36 - 2 x29*x39 - 2 x30*x33
      - 10 x30*x34 - 4 x30*x36 + 18 x30*x37 + 18 x31*x34 + 14 x31*x35
      + 20 x31*x37 - 6 x31*x39 - 16 x32*x36 + 8 x34*x38 + 6 x34*x39 - 4 x36*x37
      ]/2
Subject To
 c0: - 2 x1 - 2 x2 + x9 + x11 + x14 + 2 x15 - 2 x21 - 2 x25 + 2 x26 - x38 = 0
 c1: - x4 + x7 - x9 - 2 x15 + x27 + x28 - x29 + x30 + 2 x32 + x37 = 1
 c2: x1 - x2 + x9 + x10 - x15 - x22 - 2 x27 + x30 + x34 + 2 x36 = 1
 c3: - x6 - x11 - 2 x13 + 2 x19 + 2 x23 + x30 - x32 + 2 x33 + 2 x34 + 2 x39 = 
     -1
 c4: x6 - 2 x8 + x10 - 2 x12 - 2 x17 + 2 x20 + x26 + x31 + x33 - 2 x34 = 1
 c5: - x10 + x11 + 2 x13 + x14 - 2 x21 + 2 x24 - x25 - x27 - x29 + x32 = -2
 c6: 2 x0 + x6 - x9 - x11 - x12 + x14 + x17 - 2 x29 - 2 x30 + x36 = -1
 c7: - x5 - x6 - 2 x7 - 2 x10 - x14 + x16 + x22 - x32 + x35 - x38 = 1

Bounds
 0 <= x0 <= 1
 0 <= x1 <= 1
 0 <= x2 <= 1
 0 <= x3 <= 1
 0 <= x4 <= 1
 0 <= x5 <= 1
 0 <= x6 <= 1
 0 <= x7 <= 1
 0 <= x8 <= 1
 0 <= x9 <= 1
 0 <= x10 <= 1
 0 <= x11 <= 1
 0 <= x12 <= 1
 0 <= x13 <= 1
 0 <= x14 <= 1
 0 <= x15 <= 1
 0 <= x16 <= 1
 0 <= x17 <= 1
 0 <= x18 <= 1
 0 <= x19 <= 1
 0 <= x20 <= 1
 0 <= x21 <= 1
 0 <= x22 <= 1
 0 <= x23 <= 1
 0 <= x24 <= 1
 0 <= x25 <= 1
 0 <= x26 <= 1
 0 <= x27 <= 1
 0 <= x28 <= 1
 0 <= x29 <= 1
 0 <= x30 <= 1
 0 <= x31 <= 1
 0 <= x32 <= 1
 0 <= x33 <= 1
 0 <= x34 <= 1
 0 <= x35 <= 1
 0 <= x36 <= 1
 0 <= x37 <= 1
 0 <= x38 <= 1
 0 <= x39 <= 1

Binaries
 x0 x1 x2 x3 x4 x5 x6 x7 x8 x9 x10 x11 x12 x13 x14 x15 x16 x17 x18 x19 x20 x21
 x22 x23 x24 x25 x26 x27 x28 x29 x30 x31 x32 x33 x34 x35 x36 x37 x38 x39
End
